<?xml version="1.0" encoding="UTF-8"?><osil xmlns="os.optimizationservices.org" xmlns:xsi="http://www.w3.org/2001/XMLSchema-instance" xsi:schemaLocation="os.optimizationservices.org http://www.optimizationservices.org/schemas/2.0/OSiL.xsd"><instanceHeader><name>ex3pb</name></instanceHeader><instanceData><variables numberOfVariables="32"><var name="b1" type="B" ub="1"/><var name="b2" type="B" ub="1"/><var name="b3" type="B" ub="1"/><var name="b4" type="B" ub="1"/><var name="b5" type="B" ub="1"/><var name="b6" type="B" ub="1"/><var name="b7" type="B" ub="1"/><var name="b8" type="B" ub="1"/><var name="x9"/><var name="x10" ub="2"/><var name="x11"/><var name="x12" ub="2"/><var name="x13"/><var name="x14"/><var name="x15"/><var name="x16" ub="2"/><var name="x17" ub="1"/><var name="x18"/><var name="x19"/><var name="x20"/><var name="x21" ub="1"/><var name="x22"/><var name="x23"/><var name="x24" ub="2"/><var name="x25" ub="100"/><var name="x26" ub="2"/><var name="x27" ub="100"/><var name="x28" ub="2"/><var name="x29" ub="100"/><var name="x30"/><var name="x31"/><var name="x32" ub="3"/></variables><objectives><obj maxOrMin="min" constant="122" name="defObj_objvar" numberOfObjCoef="22"><coef idx="0">8</coef><coef idx="1">6</coef><coef idx="2">10</coef><coef idx="3">6</coef><coef idx="4">7</coef><coef idx="5">4</coef><coef idx="6">5</coef><coef idx="7">5</coef><coef idx="8">1</coef><coef idx="9">-10</coef><coef idx="10">1</coef><coef idx="11">-15</coef><coef idx="15">-40</coef><coef idx="16">15</coef><coef idx="20">15</coef><coef idx="23">80</coef><coef idx="24">-65</coef><coef idx="25">25</coef><coef idx="26">-60</coef><coef idx="27">35</coef><coef idx="28">-80</coef><coef idx="31">-35</coef></obj></objectives><constraints numberOfConstraints="31"><con name="e1" lb="1" ub="1"/><con name="e2" lb="1" ub="1"/><con name="e3" lb="0" ub="0"/><con name="e4" lb="0" ub="0"/><con name="e5" lb="0" ub="0"/><con name="e6" lb="1" ub="1"/><con name="e7" lb="1" ub="1"/><con name="e8" lb="1" ub="1"/><con name="e9" lb="0" ub="0"/><con name="e10" lb="0" ub="0"/><con name="e11" lb="0" ub="0"/><con name="e12" lb="0" ub="0"/><con name="e13" lb="0" ub="0"/><con name="e14" lb="0" ub="0"/><con name="e15" lb="0" ub="0"/><con name="e16" ub="0"/><con name="e17" lb="0"/><con name="e18" ub="0"/><con name="e19" lb="0"/><con name="e20" ub="0"/><con name="e21" ub="0"/><con name="e22" ub="0"/><con name="e23" ub="0"/><con name="e24" ub="0"/><con name="e25" ub="0"/><con name="e26" ub="0"/><con name="e27" ub="0"/><con name="e28" lb="1" ub="1"/><con name="e29" ub="1"/><con name="e30" lb="0" ub="0"/><con name="e31" ub="0"/></constraints><linearConstraintCoefficients numberOfValues="72"><start><el mult="3" incr="1">0</el><el>5</el><el>8</el><el mult="3" incr="1">10</el><el>14</el><el>17</el><el>21</el><el>24</el><el mult="4" incr="3">28</el><el mult="7" incr="2">39</el><el mult="4" incr="2">54</el><el mult="3" incr="2">63</el><el>70</el><el>72</el></start><colIdx><el>8</el><el>10</el><el mult="3" incr="1">14</el><el mult="5" incr="1">18</el><el>25</el><el>27</el><el>16</el><el>23</el><el>19</el><el>25</el><el>27</el><el>15</el><el>22</el><el>23</el><el>31</el><el>17</el><el>18</el><el>21</el><el>9</el><el>11</el><el>12</el><el>17</el><el mult="3" incr="1">12</el><el>26</el><el>28</el><el>29</el><el>20</el><el>29</el><el>30</el><el>16</el><el>23</el><el>16</el><el>23</el><el>18</el><el>20</el><el>18</el><el>20</el><el>7</el><el>8</el><el>0</el><el>10</el><el>1</el><el>15</el><el>2</el><el>18</el><el>20</el><el>3</el><el>21</el><el>4</el><el>25</el><el>5</el><el>27</el><el>6</el><el>16</el><el>23</el><el>0</el><el>7</el><el>2</el><el>3</el><el>2</el><el>4</el><el>5</el><el>1</el><el>6</el></colIdx><value><el mult="3">-1</el><el>1.5</el><el>1</el><el>1.25</el><el>-1</el><el>1.25</el><el>1</el><el>-2</el><el mult="4">-1</el><el>1</el><el mult="4">-1</el><el>1</el><el>-1</el><el>1</el><el mult="2">-1</el><el mult="2">1</el><el mult="2">-1</el><el>1</el><el mult="4">-1</el><el>1</el><el>-1</el><el>1</el><el>-1</el><el>1</el><el>-.8</el><el>1</el><el>-.4</el><el>1</el><el>-5</el><el>1</el><el>-2</el><el>-10</el><el>1</el><el>-10</el><el>1</el><el>-10</el><el>1</el><el>-10</el><el mult="2">1</el><el>-10</el><el>1</el><el>-10</el><el>1</el><el>-10</el><el>1</el><el>-10</el><el mult="6">1</el><el>-1</el><el mult="3">1</el><el>-1</el></value></linearConstraintCoefficients><nonlinearExpressions numberOfNonlinearExpressions="5"><nl idx="0"><exp><variable idx="9"/></exp></nl><nl idx="1"><exp><variable idx="11" coef=".833333333333333"/></exp></nl><nl idx="5"><exp><variable idx="26" coef=".666666666666667"/></exp></nl><nl idx="6"><exp><variable idx="28"/></exp></nl><nl idx="7"><exp><variable idx="24"/></exp></nl></nonlinearExpressions></instanceData></osil>